(set-info :smt-lib-version 2.6)
(set-logic QF_FPBV)
(set-info :source |Random FP created by PyMPF|)
(set-info :license |https://www.gnu.org/licenses/gpl-3.0.html|)
(set-info :category random)
(set-info :status unsat)
;; fp.from.sbv(BitVec 64)
(declare-const x (_ BitVec 64))
(assert (bvsle x #b0000010010011110011000100100011101110100011111101101001010111110))
;; x should be 332811481508663998

(declare-const r Float64)
(assert (= r ((_ to_fp 11 53) RTP x)))
(assert (not (fp.leq r ((_ to_fp 11 53) #x439279891DD1FB4B))))
(check-sat)
(exit)
